int NumberPatients = 90
int NumberOfRooms = 14
int NumberSurgeons = 21
int NumberOfDays = 6
Duration = [32,46,32,166,165,66,256,32,32,98,33,46,119,95,103,46,119,32,53,66,66,132,32,72,103,66,58,138,60,119,32,103,40,32,32,47,98,32,79,98,32,66,72,32,66,130,98,101,29,119,66,238,72,98,32,103,78,46,66,90,98,98,31,68,131,58,201,31,103,30,103,119,103,66,87,85,98,31,100,93,92,101,53,103,131,32,105,105,201,101];
Priority = [0,0,0,0,0,0,0,0,0,0,0,0,0,0,0,0,0,0,0,0,0,0,0,0,0,0,0,0,0,0,0,0,0,0,0,0,0,0,0,0,0,0,0,0,0,0,0,0,0,0,0,0,0,0,0,0,0,0,0,0,0,0,0,0,0,0,0,0,0,0,0,0,1,0,0,0,0,0,0,0,0,0,0,0,0,0,0,0,0,0];
Waiting = [56,66,51,78,25,70,37,45,60,198,57,261,50,52,141,66,179,39,135,80,221,107,51,275,274,39,288,310,30,81,473,127,102,57,186,191,52,46,121,67,127,228,60,178,79,172,220,80,178,25,382,135,115,85,98,72,21,32,39,305,150,351,169,281,46,389,71,79,38,487,78,72,50,459,38,21,43,317,134,38,50,35,107,106,65,38,394,141,24,141];
Surgeon = [5,7,6,5,6,8,9,1,1,3,1,6,2,5,5,3,4,1,2,7,6,4,5,10,2,6,5,2,3,3,3,5,1,5,1,1,1,6,4,2,6,1,3,3,5,7,7,3,7,3,12,8,4,4,8,3,5,3,8,4,5,7,5,2,1,9,4,2,5,1,2,3,3,5,4,2,5,5,2,9,5,11,5,6,3,6,1,10,8,3];
BlockAvailability = [[[0,1],[0,0],[1,0],[0,0],[0,0],[1,1],[0,0],[0,0],[1,0],[1,1],[0,0],[0,0],[0,0],[1,0]],[[0,1],[0,0],[0,0],[0,0],[0,1],[1,0],[0,1],[1,0],[0,0],[0,0],[0,0],[0,1],[0,0],[1,0]],[[1,1],[0,0],[1,0],[0,0],[0,0],[0,0],[0,1],[1,1],[1,0],[0,0],[1,0],[0,0],[0,0],[0,1]],[[1,0],[0,1],[0,0],[1,0],[0,1],[0,0],[1,0],[0,0],[1,1],[0,0],[1,1],[1,0],[0,0],[1,0]],[[0,0],[0,0],[0,0],[0,1],[0,0],[1,0],[0,0],[0,0],[0,1],[0,0],[0,1],[0,0],[0,1],[1,0]],[[0,0],[0,0],[1,0],[1,1],[0,0],[0,0],[1,1],[0,1],[0,0],[0,1],[0,0],[0,0],[1,0],[0,1]]];
SurgeonAvailability = [[[0,1],[1,0],[1,1],[1,1],[1,1],[1,1]],[[1,1],[1,1],[1,1],[1,0],[1,0],[0,1]],[[1,0],[0,0],[0,1],[1,1],[1,1],[1,0]],[[1,1],[0,1],[1,0],[1,1],[0,1],[1,1]],[[1,1],[1,1],[1,1],[1,1],[1,0],[1,1]],[[1,1],[1,1],[1,1],[1,0],[0,1],[1,1]],[[1,1],[1,0],[1,1],[1,1],[1,1],[1,1]],[[1,1],[0,1],[0,0],[1,1],[0,0],[1,1]],[[1,1],[1,1],[1,1],[0,1],[1,0],[1,1]],[[1,1],[0,1],[1,1],[1,1],[1,1],[1,1]],[[0,0],[0,1],[0,1],[1,0],[1,1],[1,1]],[[0,1],[1,1],[1,1],[1,1],[1,1],[1,0]],[[1,1],[1,0],[1,0],[1,1],[1,1],[0,1]],[[1,1],[1,1],[1,0],[1,0],[1,1],[1,1]],[[1,1],[1,0],[1,1],[1,1],[1,0],[0,1]],[[1,1],[1,1],[1,1],[1,1],[0,1],[1,1]],[[0,1],[0,1],[1,0],[1,1],[1,0],[1,1]],[[1,1],[1,0],[1,1],[1,1],[1,1],[1,0]],[[0,1],[1,0],[1,1],[1,1],[1,1],[1,1]],[[0,1],[1,1],[1,1],[1,1],[0,1],[0,0]],[[1,1],[0,0],[1,1],[1,1],[0,1],[0,1]]];
